(set-logic HORN)
(declare-datatypes ((Nat_1 0)) (((Z_0 ) (S_0 (unS_0 Nat_1)))))
(declare-fun diseqNat_0 (Nat_1 Nat_1) Bool)
(declare-fun unS_1 (Nat_1 Nat_1) Bool)
(declare-fun isZ_0 (Nat_1) Bool)
(declare-fun isS_0 (Nat_1) Bool)
(assert (forall ((x_58 Nat_1) (x_57 Nat_1))
	(=> (= x_58 (S_0 x_57))
	    (unS_1 x_57 x_58))))
(assert (isZ_0 Z_0))
(assert (forall ((x_59 Nat_1))
	(isS_0 (S_0 x_59))))
(assert (forall ((x_60 Nat_1))
	(diseqNat_0 Z_0 (S_0 x_60))))
(assert (forall ((x_61 Nat_1))
	(diseqNat_0 (S_0 x_61) Z_0)))
(assert (forall ((x_62 Nat_1) (x_63 Nat_1))
	(=> (diseqNat_0 x_62 x_63)
	    (diseqNat_0 (S_0 x_62) (S_0 x_63)))))
(declare-fun add_0 (Nat_1 Nat_1 Nat_1) Bool)
(declare-fun minus_0 (Nat_1 Nat_1 Nat_1) Bool)
(declare-fun le_0 (Nat_1 Nat_1) Bool)
(declare-fun ge_0 (Nat_1 Nat_1) Bool)
(declare-fun lt_0 (Nat_1 Nat_1) Bool)
(declare-fun gt_0 (Nat_1 Nat_1) Bool)
(declare-fun mult_0 (Nat_1 Nat_1 Nat_1) Bool)
(declare-fun div_0 (Nat_1 Nat_1 Nat_1) Bool)
(declare-fun mod_0 (Nat_1 Nat_1 Nat_1) Bool)
(assert (forall ((y_5 Nat_1))
	(add_0 y_5 Z_0 y_5)))
(assert (forall ((x_55 Nat_1) (y_5 Nat_1) (r_0 Nat_1))
	(=> (add_0 r_0 x_55 y_5)
	    (add_0 (S_0 r_0) (S_0 x_55) y_5))))
(assert (forall ((y_5 Nat_1))
	(minus_0 Z_0 Z_0 y_5)))
(assert (forall ((x_55 Nat_1) (y_5 Nat_1) (r_0 Nat_1))
	(=> (minus_0 r_0 x_55 y_5)
	    (minus_0 (S_0 r_0) (S_0 x_55) y_5))))
(assert (forall ((y_5 Nat_1))
	(le_0 Z_0 y_5)))
(assert (forall ((x_55 Nat_1) (y_5 Nat_1))
	(=> (le_0 x_55 y_5)
	    (le_0 (S_0 x_55) (S_0 y_5)))))
(assert (forall ((y_5 Nat_1))
	(ge_0 y_5 Z_0)))
(assert (forall ((x_55 Nat_1) (y_5 Nat_1))
	(=> (ge_0 x_55 y_5)
	    (ge_0 (S_0 x_55) (S_0 y_5)))))
(assert (forall ((y_5 Nat_1))
	(lt_0 Z_0 (S_0 y_5))))
(assert (forall ((x_55 Nat_1) (y_5 Nat_1))
	(=> (lt_0 x_55 y_5)
	    (lt_0 (S_0 x_55) (S_0 y_5)))))
(assert (forall ((y_5 Nat_1))
	(gt_0 (S_0 y_5) Z_0)))
(assert (forall ((x_55 Nat_1) (y_5 Nat_1))
	(=> (gt_0 x_55 y_5)
	    (gt_0 (S_0 x_55) (S_0 y_5)))))
(assert (forall ((y_5 Nat_1))
	(mult_0 Z_0 Z_0 y_5)))
(assert (forall ((x_55 Nat_1) (y_5 Nat_1) (r_0 Nat_1) (z_3 Nat_1))
	(=>	(and (mult_0 r_0 x_55 y_5)
			(add_0 z_3 r_0 y_5))
		(mult_0 z_3 (S_0 x_55) y_5))))
(assert (forall ((x_55 Nat_1) (y_5 Nat_1))
	(=> (lt_0 x_55 y_5)
	    (div_0 Z_0 x_55 y_5))))
(assert (forall ((x_55 Nat_1) (y_5 Nat_1) (r_0 Nat_1) (z_3 Nat_1))
	(=>	(and (ge_0 x_55 y_5)
			(minus_0 z_3 x_55 y_5)
			(div_0 r_0 z_3 y_5))
		(div_0 (S_0 r_0) x_55 y_5))))
(assert (forall ((x_55 Nat_1) (y_5 Nat_1))
	(=> (lt_0 x_55 y_5)
	    (mod_0 x_55 x_55 y_5))))
(assert (forall ((x_55 Nat_1) (y_5 Nat_1) (r_0 Nat_1) (z_3 Nat_1))
	(=>	(and (ge_0 x_55 y_5)
			(minus_0 z_3 x_55 y_5)
			(mod_0 r_0 z_3 y_5))
		(mod_0 r_0 x_55 y_5))))
(declare-datatypes ((Nat_0 0)) (((zero_0 ) (succ_0 (p_0 Nat_0)))))
(declare-fun diseqNat_1 (Nat_0 Nat_0) Bool)
(declare-fun p_1 (Nat_0 Nat_0) Bool)
(declare-fun iszero_0 (Nat_0) Bool)
(declare-fun issucc_0 (Nat_0) Bool)
(assert (forall ((x_66 Nat_0) (x_65 Nat_0))
	(=> (= x_66 (succ_0 x_65))
	    (p_1 x_65 x_66))))
(assert (iszero_0 zero_0))
(assert (forall ((x_67 Nat_0))
	(issucc_0 (succ_0 x_67))))
(assert (forall ((x_68 Nat_0))
	(diseqNat_1 zero_0 (succ_0 x_68))))
(assert (forall ((x_69 Nat_0))
	(diseqNat_1 (succ_0 x_69) zero_0)))
(assert (forall ((x_70 Nat_0) (x_71 Nat_0))
	(=> (diseqNat_1 x_70 x_71)
	    (diseqNat_1 (succ_0 x_70) (succ_0 x_71)))))
(declare-datatypes ((Bin_0 0)) (((One_0 ) (ZeroAnd_0 (projZeroAnd_0 Bin_0)) (OneAnd_0 (projOneAnd_0 Bin_0)))))
(declare-fun diseqBin_0 (Bin_0 Bin_0) Bool)
(declare-fun projZeroAnd_1 (Bin_0 Bin_0) Bool)
(declare-fun projOneAnd_1 (Bin_0 Bin_0) Bool)
(declare-fun isOne_0 (Bin_0) Bool)
(declare-fun isZeroAnd_0 (Bin_0) Bool)
(declare-fun isOneAnd_0 (Bin_0) Bool)
(assert (forall ((x_74 Bin_0) (x_73 Bin_0))
	(=> (= x_74 (ZeroAnd_0 x_73))
	    (projZeroAnd_1 x_73 x_74))))
(assert (forall ((x_76 Bin_0) (x_75 Bin_0))
	(=> (= x_76 (OneAnd_0 x_75))
	    (projOneAnd_1 x_75 x_76))))
(assert (isOne_0 One_0))
(assert (forall ((x_77 Bin_0))
	(isZeroAnd_0 (ZeroAnd_0 x_77))))
(assert (forall ((x_78 Bin_0))
	(isOneAnd_0 (OneAnd_0 x_78))))
(assert (forall ((x_79 Bin_0))
	(diseqBin_0 One_0 (ZeroAnd_0 x_79))))
(assert (forall ((x_80 Bin_0))
	(diseqBin_0 One_0 (OneAnd_0 x_80))))
(assert (forall ((x_81 Bin_0))
	(diseqBin_0 (ZeroAnd_0 x_81) One_0)))
(assert (forall ((x_82 Bin_0))
	(diseqBin_0 (OneAnd_0 x_82) One_0)))
(assert (forall ((x_83 Bin_0) (x_84 Bin_0))
	(diseqBin_0 (ZeroAnd_0 x_83) (OneAnd_0 x_84))))
(assert (forall ((x_85 Bin_0) (x_86 Bin_0))
	(diseqBin_0 (OneAnd_0 x_85) (ZeroAnd_0 x_86))))
(assert (forall ((x_87 Bin_0) (x_88 Bin_0))
	(=> (diseqBin_0 x_87 x_88)
	    (diseqBin_0 (ZeroAnd_0 x_87) (ZeroAnd_0 x_88)))))
(assert (forall ((x_89 Bin_0) (x_90 Bin_0))
	(=> (diseqBin_0 x_89 x_90)
	    (diseqBin_0 (OneAnd_0 x_89) (OneAnd_0 x_90)))))
(declare-fun s_0 (Bin_0 Bin_0) Bool)
(assert (forall ((x_0 Bin_0) (ys_0 Bin_0) (x_10 Bin_0) (x_11 Bin_0))
	(=>	(and (= x_10 (ZeroAnd_0 x_11))
			(s_0 x_11 ys_0)
			(= x_0 (OneAnd_0 ys_0)))
		(s_0 x_10 x_0))))
(assert (forall ((x_0 Bin_0) (xs_0 Bin_0) (x_12 Bin_0))
	(=>	(and (= x_12 (OneAnd_0 xs_0))
			(= x_0 (ZeroAnd_0 xs_0)))
		(s_0 x_12 x_0))))
(assert (forall ((x_0 Bin_0) (x_13 Bin_0))
	(=>	(and (= x_13 (ZeroAnd_0 One_0))
			(= x_0 One_0))
		(s_0 x_13 x_0))))
(declare-fun plus_0 (Bin_0 Bin_0 Bin_0) Bool)
(assert (forall ((x_1 Bin_0) (y_0 Bin_0) (x_2 Bin_0) (ys_1 Bin_0) (x_14 Bin_0) (x_15 Bin_0) (x_16 Bin_0))
	(=>	(and (= x_14 (ZeroAnd_0 x_16))
			(plus_0 x_15 x_2 ys_1)
			(s_0 x_16 x_15)
			(= x_1 (OneAnd_0 x_2))
			(= y_0 (OneAnd_0 ys_1)))
		(plus_0 x_14 x_1 y_0))))
(assert (forall ((x_1 Bin_0) (y_0 Bin_0) (x_2 Bin_0) (zs_0 Bin_0) (x_17 Bin_0) (x_18 Bin_0))
	(=>	(and (= x_17 (OneAnd_0 x_18))
			(plus_0 x_18 x_2 zs_0)
			(= x_1 (OneAnd_0 x_2))
			(= y_0 (ZeroAnd_0 zs_0)))
		(plus_0 x_17 x_1 y_0))))
(assert (forall ((x_1 Bin_0) (y_0 Bin_0) (x_2 Bin_0) (x_19 Bin_0) (x_20 Bin_0))
	(=>	(and (= x_19 x_20)
			(s_0 x_20 (OneAnd_0 x_2))
			(= x_1 (OneAnd_0 x_2))
			(= y_0 One_0))
		(plus_0 x_19 x_1 y_0))))
(assert (forall ((x_1 Bin_0) (y_0 Bin_0) (z_0 Bin_0) (xs_1 Bin_0) (x_21 Bin_0) (x_22 Bin_0))
	(=>	(and (= x_21 (OneAnd_0 x_22))
			(plus_0 x_22 z_0 xs_1)
			(= x_1 (ZeroAnd_0 z_0))
			(= y_0 (OneAnd_0 xs_1)))
		(plus_0 x_21 x_1 y_0))))
(assert (forall ((x_1 Bin_0) (y_0 Bin_0) (z_0 Bin_0) (ys_2 Bin_0) (x_23 Bin_0) (x_24 Bin_0))
	(=>	(and (= x_23 (ZeroAnd_0 x_24))
			(plus_0 x_24 z_0 ys_2)
			(= x_1 (ZeroAnd_0 z_0))
			(= y_0 (ZeroAnd_0 ys_2)))
		(plus_0 x_23 x_1 y_0))))
(assert (forall ((x_1 Bin_0) (y_0 Bin_0) (z_0 Bin_0) (x_25 Bin_0) (x_26 Bin_0))
	(=>	(and (= x_25 x_26)
			(s_0 x_26 (ZeroAnd_0 z_0))
			(= x_1 (ZeroAnd_0 z_0))
			(= y_0 One_0))
		(plus_0 x_25 x_1 y_0))))
(assert (forall ((x_1 Bin_0) (y_0 Bin_0) (x_27 Bin_0) (x_28 Bin_0))
	(=>	(and (= x_27 x_28)
			(s_0 x_28 y_0)
			(= x_1 One_0))
		(plus_0 x_27 x_1 y_0))))
(declare-fun plus_1 (Nat_0 Nat_0 Nat_0) Bool)
(assert (forall ((x_3 Nat_0) (y_1 Nat_0) (z_1 Nat_0) (x_29 Nat_0) (x_30 Nat_0))
	(=>	(and (= x_29 (succ_0 x_30))
			(plus_1 x_30 z_1 y_1)
			(= x_3 (succ_0 z_1)))
		(plus_1 x_29 x_3 y_1))))
(assert (forall ((x_3 Nat_0) (y_1 Nat_0) (x_31 Nat_0))
	(=>	(and (= x_31 y_1)
			(= x_3 zero_0))
		(plus_1 x_31 x_3 y_1))))
(declare-fun toNat_0 (Nat_0 Bin_0) Bool)
(assert (forall ((x_4 Bin_0) (ys_3 Bin_0) (x_32 Nat_0) (x_33 Nat_0) (x_34 Nat_0) (x_35 Nat_0) (x_36 Nat_0))
	(=>	(and (= x_32 x_36)
			(toNat_0 x_33 ys_3)
			(plus_1 x_34 (succ_0 zero_0) x_33)
			(toNat_0 x_35 ys_3)
			(plus_1 x_36 x_34 x_35)
			(= x_4 (OneAnd_0 ys_3)))
		(toNat_0 x_32 x_4))))
(assert (forall ((x_4 Bin_0) (xs_2 Bin_0) (x_37 Nat_0) (x_38 Nat_0) (x_39 Nat_0) (x_40 Nat_0))
	(=>	(and (= x_37 x_40)
			(toNat_0 x_38 xs_2)
			(toNat_0 x_39 xs_2)
			(plus_1 x_40 x_38 x_39)
			(= x_4 (ZeroAnd_0 xs_2)))
		(toNat_0 x_37 x_4))))
(assert (forall ((x_4 Bin_0) (x_41 Nat_0))
	(=>	(and (= x_41 (succ_0 zero_0))
			(= x_4 One_0))
		(toNat_0 x_41 x_4))))
(assert (forall ((x_5 Bin_0) (y_2 Bin_0) (x_42 Bin_0) (x_43 Nat_0) (x_44 Nat_0) (x_45 Nat_0) (x_46 Nat_0))
	(=>	(and (diseqNat_1 x_43 x_46)
			(plus_0 x_42 x_5 y_2)
			(toNat_0 x_43 x_42)
			(toNat_0 x_44 x_5)
			(toNat_0 x_45 y_2)
			(plus_1 x_46 x_44 x_45))
		false)))
(assert (forall ((x_6 Nat_0) (y_3 Nat_0) (z_2 Nat_0) (x_47 Nat_0) (x_48 Nat_0) (x_49 Nat_0) (x_50 Nat_0))
	(=>	(and (diseqNat_1 x_48 x_50)
			(plus_1 x_47 y_3 z_2)
			(plus_1 x_48 x_6 x_47)
			(plus_1 x_49 x_6 y_3)
			(plus_1 x_50 x_49 z_2))
		false)))
(assert (forall ((x_7 Nat_0) (y_4 Nat_0) (x_51 Nat_0) (x_52 Nat_0))
	(=>	(and (diseqNat_1 x_51 x_52)
			(plus_1 x_51 x_7 y_4)
			(plus_1 x_52 y_4 x_7))
		false)))
(assert (forall ((x_8 Nat_0) (x_53 Nat_0))
	(=>	(and (diseqNat_1 x_53 x_8)
			(plus_1 x_53 x_8 zero_0))
		false)))
(assert (forall ((x_9 Nat_0) (x_54 Nat_0))
	(=>	(and (diseqNat_1 x_54 x_9)
			(plus_1 x_54 zero_0 x_9))
		false)))
(check-sat)
